# Solution for model GasLib-40
# Objective value = 2.3567572105966409e+01
loadshed[innode_1] 0
loadshed[innode_2] 0
loadshed[innode_3] 0
loadshed[innode_4] 0
loadshed[innode_5] 0
loadshed[innode_6] 0
loadshed[innode_7] 0
loadshed[innode_8] 0
loadshed[source_1] -2.1334322786209259e-01
loadshed[source_2] 1.6323553793630774e-01
loadshed[source_3] 1.9918435951751756e-01
loadshed[sink_1] 0
loadshed[sink_2] 0
loadshed[sink_3] 0
loadshed[sink_4] 0
loadshed[sink_5] 0
loadshed[sink_6] 0
loadshed[sink_7] 0
loadshed[sink_8] 0
loadshed[sink_9] 0
loadshed[sink_10] 0
loadshed[sink_11] 0
loadshed[sink_12] 1
loadshed[sink_13] 0
loadshed[sink_14] 0
loadshed[sink_15] 0
loadshed[sink_16] 0
loadshed[sink_17] 0
loadshed[sink_18] 0
loadshed[sink_19] 0
loadshed[sink_20] 0
loadshed[sink_21] 4.4107447272151279e-01
loadshed[sink_22] 0
loadshed[sink_23] 0
loadshed[sink_24] 0
loadshed[sink_25] 0
loadshed[sink_26] 0
loadshed[sink_27] 0
loadshed[sink_28] 0
loadshed[sink_29] 0
flow[source_1,sink_3] 1.9181776793250373e+02
flow[innode_1,sink_16] 1.6354166666666970e+01
flow[innode_6,sink_13] -1.2122000385998334e+01
flow[sink_13,sink_14] -28.476167052665
flow[sink_14,sink_10] -4.4830333719331669e+01
flow[sink_25,sink_26] 1.5786824514111333e+02
flow[sink_26,sink_9] 8.1770833333333655e+01
flow[sink_9,sink_18] 6.5416666666666671e+01
flow[sink_26,sink_4] 5.9743245141113022e+01
flow[sink_4,sink_20] -4.7522516086255564e+01
flow[sink_18,sink_6] 4.9062500000000313e+01
flow[sink_25,innode_8] -1.5910943459916734e+02
flow[sink_6,sink_7] 0
flow[sink_6,sink_22] 3.2708333333333641e+01
flow[sink_7,sink_24] 2.5494927894033587e+01
flow[sink_22,sink_1] 1.6354166666666970e+01
flow[sink_24,sink_21] 9.1407612273669265e+00
flow[sink_21,sink_12] 0
flow[sink_7,sink_5] -4.1849094560700259e+01
flow[sink_5,sink_17] -5.8203261227366923e+01
flow[sink_17,sink_4] -9.0911594560701928e+01
flow[sink_17,sink_8] 1.6354166666668334e+01
flow[sink_3,sink_23] 16.3541666666697
flow[sink_8,sink_20] 0
flow[sink_25,sink_20] 6.3876682752922250e+01
flow[sink_25,sink_15] -6.6867659575536734e+01
flow[sink_15,sink_29] -9.9575992908887656e+01
flow[sink_29,sink_28] 1.6354166666667879e+01
flow[sink_29,sink_2] 0
flow[sink_2,sink_15] -1.6354166666684250e+01
flow[sink_29,innode_7] -1.3228432624222191e+02
flow[innode_4,sink_19] 4.9383341467438228e+01
flow[sink_19,innode_3] 4.5819306533597981e+01
flow[innode_4,innode_5] 7.7217825585226436e+01
flow[sink_27,innode_5] -7.7217825585226436e+01
flow[sink_27,sink_19] 6.0863658918559771e+01
flow[sink_10,sink_11] 3.2708333333333641e+01
flow[sink_10,innode_2] -4.8073527185733994e+01
flow[sink_10,innode_3] -4.5819306533597981e+01
flow[innode_6,sink_25] 1.2122000385998334e+01
flow[sink_11,innode_1] 1.6354166666666970e+01
flow[sink_19,innode_2] 4.8073527185733994e+01
flow[source_3,innode_4] 1.2660116705266466e+02
flow[source_2,innode_7] 1.3228432624222191e+02
flow[sink_3,innode_8] 1.5910943459916734e+02
pressure[innode_1] 7.6320019238143246e+01
pressure[innode_2] 7.9012605007682851e+01
pressure[innode_3] 7.8911143341837786e+01
pressure[innode_4] 81.01325
pressure[innode_5] 8.0960135507853934e+01
pressure[innode_6] 7.4233521620228785e+01
pressure[innode_7] 81.01325
pressure[innode_8] 8.0372076478844988e+01
pressure[source_1] 81.01325
pressure[source_2] 81.01325
pressure[source_3] 81.01325
pressure[sink_1] 5.2442595992262170e+01
pressure[sink_2] 7.4504502176711213e+01
pressure[sink_3] 8.0372076478844988e+01
pressure[sink_4] 5.5519043016157049e+01
pressure[sink_5] 4.7708979387580627e+01
pressure[sink_6] 5.4543673602649548e+01
pressure[sink_7] 3.0304268220188256e+01
pressure[sink_8] 5.1427616448350108e+01
pressure[sink_9] 5.8220758406107834e+01
pressure[sink_10] 7.6471720545746791e+01
pressure[sink_11] 7.6320019238143246e+01
pressure[sink_12] 1.01325
pressure[sink_13] 7.4300348182582340e+01
pressure[sink_14] 7.4351308709156143e+01
pressure[sink_15] 7.4557894926477658e+01
pressure[sink_16] 7.5298369403325566e+01
pressure[sink_17] 5.2044701643763730e+01
pressure[sink_18] 5.5853788430909177e+01
pressure[sink_19] 7.9012605007682851e+01
pressure[sink_20] 5.9005515763884731e+01
pressure[sink_21] 1.01325
pressure[sink_22] 5.3506365134617184e+01
pressure[sink_23] 80.2073584671852
pressure[sink_24] 1.1144754378130397e+00
pressure[sink_25] 7.4233521620228785e+01
pressure[sink_26] 6.3114953825819185e+01
pressure[sink_27] 8.0319370238696351e+01
pressure[sink_28] 7.7179880222656053e+01
pressure[sink_29] 7.7475162496273228e+01
interdiction[source_1,sink_3] 0
interdiction[innode_1,sink_16] 0
interdiction[innode_6,sink_13] 0
interdiction[sink_13,sink_14] 0
interdiction[sink_14,sink_10] 0
interdiction[sink_25,sink_26] 0
interdiction[sink_26,sink_9] 0
interdiction[sink_9,sink_18] 0
interdiction[sink_26,sink_4] 0
interdiction[sink_4,sink_20] 0
interdiction[sink_18,sink_6] 0
interdiction[sink_25,innode_8] 0
interdiction[sink_6,sink_7] 1
interdiction[sink_6,sink_22] 0
interdiction[sink_7,sink_24] 0
interdiction[sink_22,sink_1] 0
interdiction[sink_24,sink_21] 0
interdiction[sink_21,sink_12] 0
interdiction[sink_7,sink_5] 0
interdiction[sink_5,sink_17] 0
interdiction[sink_17,sink_4] 0
interdiction[sink_17,sink_8] 0
interdiction[sink_3,sink_23] 0
interdiction[sink_8,sink_20] 1
interdiction[sink_25,sink_20] 0
interdiction[sink_25,sink_15] 0
interdiction[sink_15,sink_29] 0
interdiction[sink_29,sink_28] 0
interdiction[sink_29,sink_2] 1
interdiction[sink_2,sink_15] 0
interdiction[sink_29,innode_7] 0
interdiction[innode_4,sink_19] 0
interdiction[sink_19,innode_3] 0
interdiction[innode_4,innode_5] 0
interdiction[sink_27,innode_5] 0
interdiction[sink_27,sink_19] 0
interdiction[sink_10,sink_11] 0
interdiction[sink_10,innode_2] 0
interdiction[sink_10,innode_3] 0
interdiction[innode_6,sink_25] 0
interdiction[sink_11,innode_1] 0
interdiction[sink_19,innode_2] 0
interdiction[source_3,innode_4] 0
interdiction[source_2,innode_7] 0
interdiction[sink_3,innode_8] 0
WCcheckFlow[source_1,sink_3] 39
WCcheckFlow[innode_1,sink_16] 1
WCcheckFlow[innode_6,sink_13] 13
WCcheckFlow[sink_13,sink_14] 12
WCcheckFlow[sink_14,sink_10] 11
WCcheckFlow[sink_25,sink_26] 15
WCcheckFlow[sink_26,sink_9] 5
WCcheckFlow[sink_9,sink_18] 4
WCcheckFlow[sink_26,sink_4] 9
WCcheckFlow[sink_4,sink_20] 1
WCcheckFlow[sink_18,sink_6] 3
WCcheckFlow[sink_25,innode_8] -36
WCcheckFlow[sink_6,sink_7] 0
WCcheckFlow[sink_6,sink_22] 2
WCcheckFlow[sink_7,sink_24] 3
WCcheckFlow[sink_22,sink_1] 1
WCcheckFlow[sink_24,sink_21] 2
WCcheckFlow[sink_21,sink_12] 1
WCcheckFlow[sink_7,sink_5] -4
WCcheckFlow[sink_5,sink_17] -5
WCcheckFlow[sink_17,sink_4] -7
WCcheckFlow[sink_17,sink_8] 1
WCcheckFlow[sink_3,sink_23] 1
WCcheckFlow[sink_8,sink_20] 0
WCcheckFlow[sink_25,sink_20] 0
WCcheckFlow[sink_25,sink_15] 6
WCcheckFlow[sink_15,sink_29] 4
WCcheckFlow[sink_29,sink_28] 1
WCcheckFlow[sink_29,sink_2] 0
WCcheckFlow[sink_2,sink_15] -1
WCcheckFlow[sink_29,innode_7] 2
WCcheckFlow[innode_4,sink_19] -4
WCcheckFlow[sink_19,innode_3] -5
WCcheckFlow[innode_4,innode_5] 2
WCcheckFlow[sink_27,innode_5] -1
WCcheckFlow[sink_27,sink_19] 0
WCcheckFlow[sink_10,sink_11] 3
WCcheckFlow[sink_10,innode_2] 1
WCcheckFlow[sink_10,innode_3] 6
WCcheckFlow[innode_6,sink_25] -14
WCcheckFlow[sink_11,innode_1] 2
WCcheckFlow[sink_19,innode_2] 0
WCcheckFlow[source_3,innode_4] -1
WCcheckFlow[source_2,innode_7] -1
WCcheckFlow[sink_3,innode_8] 37
